100 10
27 37
40 32
31 38
13 94
74 93
51 66
21 66
29 5
78 26
43 73
94 74
65 25
38 86
72 58
61 4
65 75
59 64
77 22
41 22
61 65
72 59
69 77
70 1
51 10
12 97
12 96
22 78
36 20
13 92
63 47
14 76
38 71
77 100
40 97
5 41
14 62
80 94
25 5
33 64
5 25
44 78
87 81
1 35
26 47
59 100
38 49
2 82
2 64
85 29
52 51
33 69
27 63
85 95
51 4
35 38
74 4
83 51
41 72
70 96
13 28
12 72
81 6
78 16
38 28
23 97
22 89
43 28
67 98
9 71
26 93
38 97
73 71
85 61
41 44
44 39
92 70
33 39
38 77
86 32
27 29
89 4
41 30
61 49
47 67
34 3
74 75
57 39
71 21
68 92
29 34
82 30
73 29
76 44
15 65
51 94
68 32
17 79
61 48
59 46
96 25
556 629
401 483
643 720
439 494
400 452
560 644
441 510
535 609
399 479
614 690
